(declare-fun Constructed_Argument_t () String)
(declare-fun CreateAsClass () Bool)
(declare-fun Constructed_Argument_elements_routes_0_t () String)
(declare-fun Constructed_Argument_elements_routes_0 () Real)
(assert (= Constructed_Argument_t "object"))
(assert CreateAsClass)
(assert (= Constructed_Argument_elements_routes_0_t "number"))
(assert (not (= Constructed_Argument_elements_routes_0 0.0)))
(check-sat)
